(set-info :smt-lib-version 2.6)

(set-info :source |
Generated by: Amar Shah
Generated on: 2024-12-11
Generator: Verus
Application: Verification of Rust Program
Target solver: z3
Time limit: 10
Benchmarks generated by the Rust verifier Verus (https://verus-lang.github.io/verus/guide/) on the project Verus Systems (https://dl.acm.org/doi/10.1145/3694715.3695952) 
and processed using Mariposa (https://github.com/secure-foundations/mariposa).
This benchmarks was originally run with z3 with the following options:
    (set-option :auto_config false)
    (set-option :smt.mbqi false)
    (set-option :smt.case_split 3)
    (set-option :smt.qi.eager_threshold 100.0)
    (set-option :smt.delay_units true)
    (set-option :smt.arith.solver 2)
    (set-option :smt.arith.nl false)
    (set-option :pi.enabled false)
    (set-option :rewriter.sort_disjunctions false)
|)
(set-info :license "https://creativecommons.org/licenses/by/4.0/")
(set-info :category "industrial")
(set-info :status unsat)
(declare-sort %%Function%% 0)
(declare-sort FuelId 0)
(declare-sort Fuel 0)
(declare-const zero Fuel)
(declare-fun succ (Fuel) Fuel)
(declare-fun fuel_bool (FuelId) Bool)
(declare-fun fuel_bool_default (FuelId) Bool)
(declare-const fuel_defaults Bool)
(assert (=> fuel_defaults (forall ((id FuelId)) (! (= (fuel_bool id) (fuel_bool_default id)) :pattern ((fuel_bool id)) ))))
(declare-datatypes ((fndef 0)) (((fndef_singleton ))))
(declare-sort Poly 0)
(declare-sort Height 0)
(declare-fun I (Int) Poly)
(declare-fun B (Bool) Poly)
(declare-fun F (fndef) Poly)
(declare-fun %I (Poly) Int)
(declare-fun %B (Poly) Bool)
(declare-fun %F (Poly) fndef)
(declare-sort Type 0)
(declare-const BOOL Type)
(declare-const INT Type)
(declare-const NAT Type)
(declare-const CHAR Type)
(declare-fun UINT (Int) Type)
(declare-fun SINT (Int) Type)
(declare-fun CONST_INT (Int) Type)
(declare-sort Dcr 0)
(declare-const $ Dcr)
(declare-fun REF (Dcr) Dcr)
(declare-fun MUT_REF (Dcr) Dcr)
(declare-fun BOX (Dcr Type Dcr) Dcr)
(declare-fun RC (Dcr Type Dcr) Dcr)
(declare-fun ARC (Dcr Type Dcr) Dcr)
(declare-fun GHOST (Dcr) Dcr)
(declare-fun TRACKED (Dcr) Dcr)
(declare-fun NEVER (Dcr) Dcr)
(declare-fun CONST_PTR (Dcr) Dcr)
(declare-fun ARRAY (Dcr Type Dcr Type) Type)
(declare-fun SLICE (Dcr Type) Type)
(declare-const STRSLICE Type)
(declare-const ALLOCATOR_GLOBAL Type)
(declare-fun PTR (Dcr Type) Type)
(declare-fun has_type (Poly Type) Bool)
(declare-fun as_type (Poly Type) Poly)
(declare-fun mk_fun (%%Function%%) %%Function%%)
(declare-fun const_int (Type) Int)
(assert (forall ((i Int)) (! (= i (const_int (CONST_INT i))) :pattern ((CONST_INT i)) )))
(assert (forall ((b Bool)) (! (has_type (B b) BOOL) :pattern ((has_type (B b) BOOL)) )))
(assert (forall ((x Poly) (t Type)) (! (and (has_type (as_type x t) t) (=> (has_type x t) (= x (as_type x t)))) :pattern ((as_type x t)) )))
(assert (forall ((x %%Function%%)) (! (= (mk_fun x) x) :pattern ((mk_fun x)) )))
(assert (forall ((x Bool)) (! (= x (%B (B x))) :pattern ((B x)) )))
(assert (forall ((x Int)) (! (= x (%I (I x))) :pattern ((I x)) )))
(assert (forall ((x Poly)) (! (=> (has_type x BOOL) (= x (B (%B x)))) :pattern ((has_type x BOOL)) )))
(assert (forall ((x Poly)) (! (=> (has_type x INT) (= x (I (%I x)))) :pattern ((has_type x INT)) )))
(assert (forall ((x Poly)) (! (=> (has_type x NAT) (= x (I (%I x)))) :pattern ((has_type x NAT)) )))
(assert (forall ((bits Int) (x Poly)) (! (=> (has_type x (UINT bits)) (= x (I (%I x)))) :pattern ((has_type x (UINT bits))) )))
(assert (forall ((bits Int) (x Poly)) (! (=> (has_type x (SINT bits)) (= x (I (%I x)))) :pattern ((has_type x (SINT bits))) )))
(assert (forall ((x Poly)) (! (=> (has_type x CHAR) (= x (I (%I x)))) :pattern ((has_type x CHAR)) )))
(declare-fun ext_eq (Bool Type Poly Poly) Bool)
(assert (forall ((deep Bool) (t Type) (x Poly) (y Poly)) (! (= (= x y) (ext_eq deep t x y)) :pattern ((ext_eq deep t x y)) )))
(declare-const SZ Int)
(assert (or (= SZ 32) (= SZ 64)))
(declare-fun uHi (Int) Int)
(declare-fun iLo (Int) Int)
(declare-fun iHi (Int) Int)
(assert (= (uHi 8) 256))
(assert (= (uHi 16) 65536))
(assert (= (uHi 32) 4294967296))
(assert (= (uHi 64) 18446744073709551616))
(assert (= (uHi 128) (+ 1 340282366920938463463374607431768211455)))
(assert (= (iLo 8) (- 128)))
(assert (= (iLo 16) (- 32768)))
(assert (= (iLo 32) (- 2147483648)))
(assert (= (iLo 64) (- 9223372036854775808)))
(assert (= (iLo 128) (- 170141183460469231731687303715884105728)))
(assert (= (iHi 8) 128))
(assert (= (iHi 16) 32768))
(assert (= (iHi 32) 2147483648))
(assert (= (iHi 64) 9223372036854775808))
(assert (= (iHi 128) 170141183460469231731687303715884105728))
(declare-fun nClip (Int) Int)
(declare-fun uClip (Int Int) Int)
(declare-fun iClip (Int Int) Int)
(declare-fun charClip (Int) Int)
(assert (forall ((i Int)) (! (and (<= 0 (nClip i)) (=> (<= 0 i) (= i (nClip i)))) :pattern ((nClip i)) )))
(assert (forall ((bits Int) (i Int)) (! (and (<= 0 (uClip bits i)) (< (uClip bits i) (uHi bits)) (=> (and (<= 0 i) (< i (uHi bits))) (= i (uClip bits i)))) :pattern ((uClip bits i)) )))
(assert (forall ((bits Int) (i Int)) (! (and (<= (iLo bits) (iClip bits i)) (< (iClip bits i) (iHi bits)) (=> (and (<= (iLo bits) i) (< i (iHi bits))) (= i (iClip bits i)))) :pattern ((iClip bits i)) )))
(assert (forall ((i Int)) (! (and (or (and (<= 0 (charClip i)) (<= (charClip i) 55295)) (and (<= 57344 (charClip i)) (<= (charClip i) 1114111))) (=> (or (and (<= 0 i) (<= i 55295)) (and (<= 57344 i) (<= i 1114111))) (= i (charClip i)))) :pattern ((charClip i)) )))
(declare-fun uInv (Int Int) Bool)
(declare-fun iInv (Int Int) Bool)
(declare-fun charInv (Int) Bool)
(assert (forall ((bits Int) (i Int)) (! (= (uInv bits i) (and (<= 0 i) (< i (uHi bits)))) :pattern ((uInv bits i)) )))
(assert (forall ((bits Int) (i Int)) (! (= (iInv bits i) (and (<= (iLo bits) i) (< i (iHi bits)))) :pattern ((iInv bits i)) )))
(assert (forall ((i Int)) (! (= (charInv i) (or (and (<= 0 i) (<= i 55295)) (and (<= 57344 i) (<= i 1114111)))) :pattern ((charInv i)) )))
(assert (forall ((x Int)) (! (has_type (I x) INT) :pattern ((has_type (I x) INT)) )))
(assert (forall ((x Int)) (! (=> (<= 0 x) (has_type (I x) NAT)) :pattern ((has_type (I x) NAT)) )))
(assert (forall ((bits Int) (x Int)) (! (=> (uInv bits x) (has_type (I x) (UINT bits))) :pattern ((has_type (I x) (UINT bits))) )))
(assert (forall ((bits Int) (x Int)) (! (=> (iInv bits x) (has_type (I x) (SINT bits))) :pattern ((has_type (I x) (SINT bits))) )))
(assert (forall ((x Int)) (! (=> (charInv x) (has_type (I x) CHAR)) :pattern ((has_type (I x) CHAR)) )))
(assert (forall ((x Poly)) (! (=> (has_type x NAT) (<= 0 (%I x))) :pattern ((has_type x NAT)) )))
(assert (forall ((bits Int) (x Poly)) (! (=> (has_type x (UINT bits)) (uInv bits (%I x))) :pattern ((has_type x (UINT bits))) )))
(assert (forall ((bits Int) (x Poly)) (! (=> (has_type x (SINT bits)) (iInv bits (%I x))) :pattern ((has_type x (SINT bits))) )))
(declare-fun Add (Int Int) Int)
(declare-fun Sub (Int Int) Int)
(assert (forall ((x Int) (y Int)) (! (= (Add x y) (+ x y)) :pattern ((Add x y)))))
(assert (forall ((x Int) (y Int)) (! (= (Sub x y) (- x y)) :pattern ((Sub x y)))))
(declare-fun bitxor (Poly Poly) Int)
(declare-fun bitand (Poly Poly) Int)
(declare-fun bitor (Poly Poly) Int)
(declare-fun bitshr (Poly Poly) Int)
(declare-fun bitshl (Poly Poly) Int)
(declare-fun bitnot (Poly) Int)
(assert (forall ((x Poly) (y Poly) (bits Int)) (! (=> (and (uInv bits (%I x)) (uInv bits (%I y))) (uInv bits (bitxor x y))) :pattern ((uClip bits (bitxor x y))) )))
(assert (forall ((x Poly) (y Poly) (bits Int)) (! (=> (and (iInv bits (%I x)) (iInv bits (%I y))) (iInv bits (bitxor x y))) :pattern ((iClip bits (bitxor x y))) )))
(assert (forall ((x Poly) (y Poly) (bits Int)) (! (=> (and (uInv bits (%I x)) (uInv bits (%I y))) (uInv bits (bitor x y))) :pattern ((uClip bits (bitor x y))) )))
(assert (forall ((x Poly) (y Poly) (bits Int)) (! (=> (and (iInv bits (%I x)) (iInv bits (%I y))) (iInv bits (bitor x y))) :pattern ((iClip bits (bitor x y))) )))
(assert (forall ((x Poly) (y Poly) (bits Int)) (! (=> (and (uInv bits (%I x)) (uInv bits (%I y))) (uInv bits (bitand x y))) :pattern ((uClip bits (bitand x y))) )))
(assert (forall ((x Poly) (y Poly) (bits Int)) (! (=> (and (iInv bits (%I x)) (iInv bits (%I y))) (iInv bits (bitand x y))) :pattern ((iClip bits (bitand x y))) )))
(assert (forall ((x Poly) (y Poly) (bits Int)) (! (=> (and (uInv bits (%I x)) (<= 0 (%I y))) (uInv bits (bitshr x y))) :pattern ((uClip bits (bitshr x y))) )))
(assert (forall ((x Poly) (y Poly) (bits Int)) (! (=> (and (iInv bits (%I x)) (<= 0 (%I y))) (iInv bits (bitshr x y))) :pattern ((iClip bits (bitshr x y))) )))
(declare-fun singular_mod (Int Int) Int)
(declare-fun closure_req (Type Dcr Type Poly Poly) Bool)
(declare-fun closure_ens (Type Dcr Type Poly Poly Poly) Bool)
(declare-fun height (Poly) Height)
(declare-fun height_lt (Height Height) Bool)
(declare-fun fun_from_recursive_field (Poly) Poly)
(declare-fun check_decrease_int (Int Int Bool) Bool)
(assert (forall ((cur Int) (prev Int) (otherwise Bool)) (! (= (check_decrease_int cur prev otherwise) (or (and (<= 0 cur) (< cur prev)) (and (= cur prev) otherwise))) :pattern ((check_decrease_int cur prev otherwise)) )))
(declare-fun check_decrease_height (Poly Poly Bool) Bool)
(assert (forall ((cur Poly) (prev Poly) (otherwise Bool)) (! (= (check_decrease_height cur prev otherwise) (or (height_lt (height cur) (height prev)) (and (= (height cur) (height prev)) otherwise))) :pattern ((check_decrease_height cur prev otherwise)) )))
(declare-const fuel%vstd!array.group_array_axioms. FuelId)
(declare-const fuel%vstd!map.group_map_axioms. FuelId)
(declare-const fuel%vstd!multiset.group_multiset_axioms. FuelId)
(declare-const fuel%vstd!raw_ptr.group_raw_ptr_axioms. FuelId)
(declare-const fuel%vstd!seq.group_seq_axioms. FuelId)
(declare-const fuel%vstd!seq_lib.group_seq_lib_default. FuelId)
(declare-const fuel%vstd!set.group_set_axioms. FuelId)
(declare-const fuel%vstd!set_lib.group_set_lib_axioms. FuelId)
(declare-const fuel%vstd!slice.group_slice_axioms. FuelId)
(declare-const fuel%vstd!string.group_string_axioms. FuelId)
(declare-const fuel%vstd!std_specs.bits.group_bits_axioms. FuelId)
(declare-const fuel%vstd!std_specs.control_flow.group_control_flow_axioms. FuelId)
(declare-const fuel%vstd!std_specs.range.group_range_axioms. FuelId)
(declare-const fuel%vstd!std_specs.vec.group_vec_axioms. FuelId)
(declare-const fuel%vstd!group_vstd_default. FuelId)
(assert (distinct fuel%vstd!array.group_array_axioms. fuel%vstd!map.group_map_axioms. fuel%vstd!multiset.group_multiset_axioms. fuel%vstd!raw_ptr.group_raw_ptr_axioms. fuel%vstd!seq.group_seq_axioms. fuel%vstd!seq_lib.group_seq_lib_default. fuel%vstd!set.group_set_axioms. fuel%vstd!set_lib.group_set_lib_axioms. fuel%vstd!slice.group_slice_axioms. fuel%vstd!string.group_string_axioms. fuel%vstd!std_specs.bits.group_bits_axioms. fuel%vstd!std_specs.control_flow.group_control_flow_axioms. fuel%vstd!std_specs.range.group_range_axioms. fuel%vstd!std_specs.vec.group_vec_axioms. fuel%vstd!group_vstd_default.))
(assert (fuel_bool_default fuel%vstd!group_vstd_default.))
(assert (=> (fuel_bool_default fuel%vstd!group_vstd_default.) (and (fuel_bool_default fuel%vstd!seq.group_seq_axioms.) (fuel_bool_default fuel%vstd!seq_lib.group_seq_lib_default.) (fuel_bool_default fuel%vstd!map.group_map_axioms.) (fuel_bool_default fuel%vstd!set.group_set_axioms.) (fuel_bool_default fuel%vstd!set_lib.group_set_lib_axioms.) (fuel_bool_default fuel%vstd!std_specs.bits.group_bits_axioms.) (fuel_bool_default fuel%vstd!std_specs.control_flow.group_control_flow_axioms.) (fuel_bool_default fuel%vstd!std_specs.vec.group_vec_axioms.) (fuel_bool_default fuel%vstd!slice.group_slice_axioms.) (fuel_bool_default fuel%vstd!array.group_array_axioms.) (fuel_bool_default fuel%vstd!multiset.group_multiset_axioms.) (fuel_bool_default fuel%vstd!string.group_string_axioms.) (fuel_bool_default fuel%vstd!std_specs.range.group_range_axioms.) (fuel_bool_default fuel%vstd!raw_ptr.group_raw_ptr_axioms.))))
(assert true)
(declare-fun TYPE%fun%1. (Dcr Type Dcr Type) Type)
(declare-fun Poly%fun%1. (%%Function%%) Poly)
(declare-fun %Poly%fun%1. (Poly) %%Function%%)
(assert (forall ((x %%Function%%)) (! (= x (%Poly%fun%1. (Poly%fun%1. x))) :pattern ((Poly%fun%1. x)) )))
(assert (forall ((T%0&. Dcr) (T%0& Type) (T%1&. Dcr) (T%1& Type) (x Poly)) (! (=> (has_type x (TYPE%fun%1. T%0&. T%0& T%1&. T%1&)) (= x (Poly%fun%1. (%Poly%fun%1. x)))) :pattern ((has_type x (TYPE%fun%1. T%0&. T%0& T%1&. T%1&))) )))
(declare-fun %%apply%%0 (%%Function%% Poly) Poly)
(assert (forall ((T%0&. Dcr) (T%0& Type) (T%1&. Dcr) (T%1& Type) (x %%Function%%)) (! (=> (forall ((T%0 Poly)) (! (=> (has_type T%0 T%0&) (has_type (%%apply%%0 x T%0) T%1&)) :pattern ((has_type (%%apply%%0 x T%0) T%1&)) )) (has_type (Poly%fun%1. (mk_fun x)) (TYPE%fun%1. T%0&. T%0& T%1&. T%1&))) :pattern ((has_type (Poly%fun%1. (mk_fun x)) (TYPE%fun%1. T%0&. T%0& T%1&. T%1&))) )))
(assert (forall ((T%0&. Dcr) (T%0& Type) (T%1&. Dcr) (T%1& Type) (T%0 Poly) (x %%Function%%)) (! (=> (and (has_type (Poly%fun%1. x) (TYPE%fun%1. T%0&. T%0& T%1&. T%1&)) (has_type T%0 T%0&)) (has_type (%%apply%%0 x T%0) T%1&)) :pattern ((%%apply%%0 x T%0) (has_type (Poly%fun%1. x) (TYPE%fun%1. T%0&. T%0& T%1&. T%1&))) )))
(assert (forall ((T%0&. Dcr) (T%0& Type) (T%1&. Dcr) (T%1& Type) (T%0 Poly) (x %%Function%%)) (! (=> (and (has_type (Poly%fun%1. x) (TYPE%fun%1. T%0&. T%0& T%1&. T%1&)) (has_type T%0 T%0&)) (height_lt (height (%%apply%%0 x T%0)) (height (fun_from_recursive_field (Poly%fun%1. (mk_fun x)))))) :pattern ((height (%%apply%%0 x T%0)) (has_type (Poly%fun%1. x) (TYPE%fun%1. T%0&. T%0& T%1&. T%1&))) )))
(assert (forall ((T%0&. Dcr) (T%0& Type) (T%1&. Dcr) (T%1& Type) (deep Bool) (x Poly) (y Poly)) (! (=> (and (has_type x (TYPE%fun%1. T%0&. T%0& T%1&. T%1&)) (has_type y (TYPE%fun%1. T%0&. T%0& T%1&. T%1&)) (forall ((T%0 Poly)) (! (=> (has_type T%0 T%0&) (ext_eq deep T%1& (%%apply%%0 (%Poly%fun%1. x) T%0) (%%apply%%0 (%Poly%fun%1. y) T%0))) :pattern ((ext_eq deep T%1& (%%apply%%0 (%Poly%fun%1. x) T%0) (%%apply%%0 (%Poly%fun%1. y) T%0))) ))) (ext_eq deep (TYPE%fun%1. T%0&. T%0& T%1&. T%1&) x y)) :pattern ((ext_eq deep (TYPE%fun%1. T%0&. T%0& T%1&. T%1&) x y)) )))
(declare-fun req%lib!verus_extra.choose_v.choose_smallest. (Int Int %%Function%%) Bool)
(declare-const %%global_location_label%%0 Bool)
(assert (forall ((low! Int) (high! Int) (p! %%Function%%)) (! (= (req%lib!verus_extra.choose_v.choose_smallest. low! high! p!) (=> %%global_location_label%%0 (exists ((i$ Poly)) (! (and (has_type i$ INT) (and (and (<= low! (%I i$)) (< (%I i$) high!)) (%B (%%apply%%0 p! i$)))) :pattern ((%%apply%%0 p! i$)) )))) :pattern ((req%lib!verus_extra.choose_v.choose_smallest. low! high! p!)) )))
(declare-fun ens%lib!verus_extra.choose_v.choose_smallest. (Int Int %%Function%% Int) Bool)
(assert (forall ((low! Int) (high! Int) (p! %%Function%%) (res! Int)) (! (= (ens%lib!verus_extra.choose_v.choose_smallest. low! high! p! res!) (and (and (<= low! res!) (< res! high!)) (%B (%%apply%%0 p! (I res!))) (forall ((i$ Poly)) (! (=> (has_type i$ INT) (=> (and (<= low! (%I i$)) (< (%I i$) res!)) (not (%B (%%apply%%0 p! i$))))) :pattern ((%%apply%%0 p! i$)) )))) :pattern ((ens%lib!verus_extra.choose_v.choose_smallest. low! high! p! res!)) )))
(declare-const res! Int)
(declare-const low! Int)
(declare-const high! Int)
(declare-const p! %%Function%%)
(declare-const tmp%1 Int)
(declare-const tmp%2 Int)
(declare-const tmp%3 Int)
(declare-const decrease%init0 Int)
(assert fuel_defaults)
(assert (has_type (Poly%fun%1. p!) (TYPE%fun%1. $ INT $ BOOL)))
(assert (exists ((i$ Poly)) (! (and (has_type i$ INT) (and (and (<= low! (%I i$)) (< (%I i$) high!)) (%B (%%apply%%0 p! i$)))) :pattern ((%%apply%%0 p! i$)) )))
(declare-const %%switch_label%%0 Bool)
(declare-const %%location_label%%0 Bool)
(declare-const %%location_label%%1 Bool)
(declare-const %%location_label%%2 Bool)
(declare-const %%location_label%%3 Bool)
(declare-const %%location_label%%4 Bool)
(assert (not (=> (= decrease%init0 (Sub high! low!)) (or (and (=> (%B (%%apply%%0 p! (I low!))) (=> (= tmp%3 low!) %%switch_label%%0)) (=> (not (%B (%%apply%%0 p! (I low!)))) (=> (= tmp%2 (Add low! 1)) (and (=> %%location_label%%0 (check_decrease_int (let ((low!$0 tmp%2) (high!$1 high!) (p!$2 p!)) (Sub high!$1 low!$0)) decrease%init0 false)) (and (=> %%location_label%%1 (req%lib!verus_extra.choose_v.choose_smallest. tmp%2 high! p!)) (=> (ens%lib!verus_extra.choose_v.choose_smallest. tmp%2 high! p! tmp%1) (=> (= tmp%3 tmp%1) %%switch_label%%0))))))) (and (not %%switch_label%%0) (=> (= res! tmp%3) (and (=> %%location_label%%2 (and (<= low! res!) (< res! high!))) (and (=> %%location_label%%3 (%B (%%apply%%0 p! (I res!)))) (=> %%location_label%%4 (forall ((i$ Poly)) (! (=> (has_type i$ INT) (=> (and (<= low! (%I i$)) (< (%I i$) res!)) (not (%B (%%apply%%0 p! i$))))) :pattern ((%%apply%%0 p! i$)) )))))))))))
(check-sat)
(exit)
